\ENCODING=ISO-8859-1
\Problem name: problema

Minimize
 obj: 0.408070142699956 x1 + 0.209401867847118 x2 + 0.628292084212117 x3
      + 0.584616463343744 x4 + 0.431974174955936 x5 + 0.490075019659311 x6
      + 0.533705276330992 x7 + 0.382209213788828 x8 + 0.730215046193552 x9
      + 0.614484995091246 x10 + 0.448894198051087 x11 + 0.561354150230791 x12
      + 0.349581893722344 x13 + 0.506196140283823 x14 + 0.206085842857562 x15
      + 0.168247666329273 x16 + 0.669461857913716 x17 + 0.811134365265634 x18
      + 0.727206120089593 x19 + 0.612053826804964 x20 + 0.631521929362528 x21
      + 0.719788645189798 x22 + 0.588452138115547 x23 + 0.872119081480262 x24
      + 0.221827569814526 x25 + 0.1990838249737 x26 + 0.256537626009352 x27
      + 0.634500891444548 x28 + 0.304774931313234 x29 + 0.251979763625543 x30
      + 0.213211712060213 x31 + 0.0960028444037924 x32 + 0.765569459800574 x33
      + 0.393439459668683 x34 + 0.146122351026115 x35 + 0.161291404620902 x36
      + 0.554996604176907 x37 + 0.181335862253833 x38 + 0.336508014031176 x39
      + 0.712274566188492 x40 + 0.339079878710816 x41 + 0.242002339841498 x42
      + 0.373823637505368 x43 + 0.867604313849179 x44 + 0.506276755866114 x45
Subject To
 c1:  x1 + x2 + x3 + x4 + x5 + x6 + x7 + x8 + x9  = 2
 c2:  x1 + x10 + x11 + x12 + x13 + x14 + x15 + x16 + x17  = 2
 c3:  x2 + x10 + x18 + x19 + x20 + x21 + x22 + x23 + x24  = 2
 c4:  x3 + x11 + x18 + x25 + x26 + x27 + x28 + x29 + x30  = 2
 c5:  x4 + x12 + x19 + x25 + x31 + x32 + x33 + x34 + x35  = 2
 c6:  x5 + x13 + x20 + x26 + x31 + x36 + x37 + x38 + x39  = 2
 c7:  x6 + x14 + x21 + x27 + x32 + x36 + x40 + x41 + x42  = 2
 c8:  x7 + x15 + x22 + x28 + x33 + x37 + x40 + x43 + x44  = 2
 c9:  x8 + x16 + x23 + x29 + x34 + x38 + x41 + x43 + x45  = 2
 c10: x9 + x17 + x24 + x30 + x35 + x39 + x42 + x44 + x45  = 2
 c11: x2 + x8 + x15 + x16 + x22 <= 4
 c12: x26 + x30 + x32 + x35 + x36 <= 4
Bounds
 0 <= x1 <= 1
 0 <= x2 <= 1
 0 <= x3 <= 1
 0 <= x4 <= 1
 0 <= x5 <= 1
 0 <= x6 <= 1
 0 <= x7 <= 1
 0 <= x8 <= 1
 0 <= x9 <= 1
 0 <= x10 <= 1
 0 <= x11 <= 1
 0 <= x12 <= 1
 0 <= x13 <= 1
 0 <= x14 <= 1
 0 <= x15 <= 1
 0 <= x16 <= 1
 0 <= x17 <= 1
 0 <= x18 <= 1
 0 <= x19 <= 1
 0 <= x20 <= 1
 0 <= x21 <= 1
 0 <= x22 <= 1
 0 <= x23 <= 1
 0 <= x24 <= 1
 0 <= x25 <= 1
 0 <= x26 <= 1
 0 <= x27 <= 1
 0 <= x28 <= 1
 0 <= x29 <= 1
 0 <= x30 <= 1
 0 <= x31 <= 1
 0 <= x32 <= 1
 0 <= x33 <= 1
 0 <= x34 <= 1
 0 <= x35 <= 1
 0 <= x36 <= 1
 0 <= x37 <= 1
 0 <= x38 <= 1
 0 <= x39 <= 1
 0 <= x40 <= 1
 0 <= x41 <= 1
 0 <= x42 <= 1
 0 <= x43 <= 1
 0 <= x44 <= 1
 0 <= x45 <= 1
Binaries
 x1  x2  x3  x4  x5  x6  x7  x8  x9  x10  x11  x12  x13  x14  x15  x16  x17 
 x18  x19  x20  x21  x22  x23  x24  x25  x26  x27  x28  x29  x30  x31  x32 
 x33  x34  x35  x36  x37  x38  x39  x40  x41  x42  x43  x44  x45 
End
